(declare-fun bvlambda_13_ ()Bool         )
(declare-fun bvlambda_14_ ()Bool         )
(declare-fun a46 () (Array (_ BitVec 10) (_ BitVec 2)))
(declare-fun a47 () (Array (_ BitVec 12) (_ BitVec 4)))
(declare-fun a48 () (Array (_ BitVec 1) (_ BitVec 13)))
(assert
(let (($e1 (_ bv0 1)))
(let (($e3 (_ bv2858 13)))
(let (($e5 false    ))
(let (($e6 (_ bv16382 14)))
(let (($e10 $e5      ))
(let (($e11 (_ bv0 6)))
(let (($e17 (_ bv0 2)))
(let (($e66 (store a48 $e10 $e3)))
(let (($e67 (select $e66 bvlambda_13_)))
(let (($e69      (=        $e67  $e67)         ))
(let (($e107 (concat $e11  $e10        )))
(let (($e108 (concat $e107 $e10        )))
(let (($e109 (concat $e108 $e10        )))
(let (($e110 (concat $e109 bvlambda_14_)))
(let (($e111 (concat $e110 $e10        )))
(let (($e112 (concat $e111 bvlambda_13_)))
(let (($e113 (concat $e112 $e69        )))
(let (($e114 (store a48 $e1 $e113)))
(let (($e172 (select $e114        bvlambda_14_)))
(let (($e174 (concat bvlambda_13_ $e172)))
(let (($e175      (bvult $e174 $e6  )         ))
(let (($e198 (concat $e17 $e113)))
(let (($e238 (select $e114 true     )))
(let (($e239 ((_ extract 11 0) $e238)))
(let (($e240 (select a47 $e239)))
(let (($e242 (concat        $e11  $e240)))
(let (($e245 (select a46 $e242)))
(let (($e246 (concat $e67 $e245)))
(let (($e247      (bvult $e246 $e198)         ))
             (bvult        $e247         $e175 )
                                                                )))  ) )))                                       )                      )) )                                                         ))))))))                                     ) ))                     )     ))   )) ) ))
